(set-logic ALL)
(declare-fun seed0_T_1 () Bool)
(declare-fun seed0_T_2 () Bool)
(declare-fun seed0_T_3 () Bool)
(declare-fun seed0_T_4 () Bool)
(declare-fun seed0_T_5 () Bool)
(declare-fun seed0_T_6 () Bool)
(declare-fun seed0_T_7 () Bool)
(declare-fun seed0_T_8 () Bool)
(declare-fun seed0_T_9 () Bool)
(declare-fun seed0_T_a () Bool)
(declare-fun seed0_T_b () Bool)
(declare-fun seed0_T_c () Bool)
(declare-fun seed0_var_0xINPUT_63096 () String)
(assert (and (or (= seed0_T_1 (not (= "" seed0_var_0xINPUT_63096))) (=> (str.< (str.++ seed0_var_0xINPUT_63096 "P3fwWQue") (str.++ seed0_var_0xINPUT_63096 "QoWcSzw6Um1lu4J")) (str.<= (str.++ seed0_var_0xINPUT_63096 "aWpBbOo0tD7GgEFRm") (str.++ seed0_var_0xINPUT_63096 "xpb8na6yA3N2lw9ev45Y")))) (or seed0_T_1 (or (str.<= (str.++ seed0_var_0xINPUT_63096 "") (str.++ seed0_var_0xINPUT_63096 "7q5KMJRdT3hGBO")) (str.contains (str.++ seed0_var_0xINPUT_63096 "N1sKghYCEpSx2Q") (str.++ seed0_var_0xINPUT_63096 "DKSIGvWfZlJPAw")))) (or (= seed0_T_2 (not (= "" seed0_var_0xINPUT_63096))) (and (str.contains (str.++ seed0_var_0xINPUT_63096 "Ay") (str.++ seed0_var_0xINPUT_63096 "Nf0CjUZLmcneoO")) (str.suffixof (str.++ seed0_var_0xINPUT_63096 "g3PIljpauOCefw") (str.++ seed0_var_0xINPUT_63096 "")))) (or seed0_T_2 (xor (str.contains (str.++ seed0_var_0xINPUT_63096 "0fKoG") (str.++ seed0_var_0xINPUT_63096 "MzFKbDmTI5JvrYtE")) (str.<= (str.++ seed0_var_0xINPUT_63096 "") (str.++ seed0_var_0xINPUT_63096 "5OCx2B9")))) (or (= seed0_T_3 (not (= "" seed0_var_0xINPUT_63096))) (str.contains (str.++ seed0_var_0xINPUT_63096 "e8C") (str.++ seed0_var_0xINPUT_63096 "jRh7cziuZmoSU"))) (or seed0_T_3 (str.<= (str.++ seed0_var_0xINPUT_63096 "") (str.++ seed0_var_0xINPUT_63096 "zIoZRDgfrAqL"))) (or (= seed0_T_4 (not (= seed0_var_0xINPUT_63096 ""))) (xor (str.contains (str.++ seed0_var_0xINPUT_63096 "Kd0ezwt1LY") (str.++ seed0_var_0xINPUT_63096 "57RJgr")) (str.suffixof (str.++ seed0_var_0xINPUT_63096 "Y") (str.++ seed0_var_0xINPUT_63096 "n")))) (or seed0_T_4 (=> (str.<= (str.++ seed0_var_0xINPUT_63096 "PO4og7zb") (str.++ seed0_var_0xINPUT_63096 "sACKmFtzdHGVquWv71")) (str.prefixof (str.++ seed0_var_0xINPUT_63096 "sE7BvSdKn") (str.++ seed0_var_0xINPUT_63096 "")))) (or (= seed0_T_5 (= seed0_var_0xINPUT_63096 "")) (str.prefixof (str.++ seed0_var_0xINPUT_63096 "9j4p0o6CZxXJdOYH") (str.++ seed0_var_0xINPUT_63096 ""))) (or (= seed0_T_6 (not seed0_T_5)) (or (str.prefixof (str.++ seed0_var_0xINPUT_63096 "ghB1RbcGpIPnO") (str.++ seed0_var_0xINPUT_63096 "spLqYQd6tBngP")) (str.<= (str.++ seed0_var_0xINPUT_63096 "JXw5qG0Q8xdHe9cEu") (str.++ seed0_var_0xINPUT_63096 "KnZp")))) (or seed0_T_6 (xor (str.<= (str.++ seed0_var_0xINPUT_63096 "uPtjvSD5n") (str.++ seed0_var_0xINPUT_63096 "w3ayNSGxZrL2d5")) (str.<= (str.++ seed0_var_0xINPUT_63096 "YQnMh5") (str.++ seed0_var_0xINPUT_63096 "Up85qTe")))) (or (= seed0_T_7 (not (= "" seed0_var_0xINPUT_63096))) (and (str.<= (str.++ seed0_var_0xINPUT_63096 "GEX9Uhzrne0vqNMjYk1") (str.++ seed0_var_0xINPUT_63096 "ZqfgkY8oirV1h")) (str.suffixof (str.++ seed0_var_0xINPUT_63096 "oGeMBuFlEf7Ns5t9") (str.++ seed0_var_0xINPUT_63096 "tfUH7xjAeYnpmDkId")))) (or seed0_T_7 (or (str.<= (str.++ seed0_var_0xINPUT_63096 "paD") (str.++ seed0_var_0xINPUT_63096 "Lp8MfqW3k")) (str.prefixof (str.++ seed0_var_0xINPUT_63096 "Y5nsXqT") (str.++ seed0_var_0xINPUT_63096 "S79qKi")))) (or (= seed0_T_8 (not (= "" seed0_var_0xINPUT_63096))) (xor (str.suffixof (str.++ seed0_var_0xINPUT_63096 "n39egW61ZXs5m") (str.++ seed0_var_0xINPUT_63096 "4TV")) (str.prefixof (str.++ seed0_var_0xINPUT_63096 "v45eaG") (str.++ seed0_var_0xINPUT_63096 "7")))) (or seed0_T_8 (or (str.contains (str.++ seed0_var_0xINPUT_63096 "WOz7a2j1BFoEickY") (str.++ seed0_var_0xINPUT_63096 "RtJF87")) (str.<= (str.++ seed0_var_0xINPUT_63096 "") (str.++ seed0_var_0xINPUT_63096 "E6rw3MbYXWyD")))) (or (= seed0_T_9 (not (= seed0_var_0xINPUT_63096 ""))) (not (str.< (str.++ seed0_var_0xINPUT_63096 "h") (str.++ seed0_var_0xINPUT_63096 "PXjg7sQ4h5u")))) (or seed0_T_9 (xor (str.prefixof (str.++ seed0_var_0xINPUT_63096 "MNAupqJlC5") (str.++ seed0_var_0xINPUT_63096 "fapvMAI")) (str.<= (str.++ seed0_var_0xINPUT_63096 "j") (str.++ seed0_var_0xINPUT_63096 "cX")))) (or (= seed0_T_a (= seed0_var_0xINPUT_63096 "")) (and (str.<= (str.++ seed0_var_0xINPUT_63096 "i8X9KFHmCuzZ4BQ") (str.++ seed0_var_0xINPUT_63096 "RdyNvCfP")) (str.prefixof (str.++ seed0_var_0xINPUT_63096 "PD") (str.++ seed0_var_0xINPUT_63096 "U5jtEB0Pp8dZ1chegfA")))) (or (= seed0_T_b (not seed0_T_a)) (=> (str.<= (str.++ seed0_var_0xINPUT_63096 "9cR") (str.++ seed0_var_0xINPUT_63096 "pRveQi9")) (str.suffixof (str.++ seed0_var_0xINPUT_63096 "sHXkpwaZD3NuC") (str.++ seed0_var_0xINPUT_63096 "z2hPWYFfIqGBnXt")))) (or seed0_T_b (xor (str.< (str.++ seed0_var_0xINPUT_63096 "WQvFiDyHRqLSO03nu9so") (str.++ seed0_var_0xINPUT_63096 "rFfECD67")) (str.suffixof (str.++ seed0_var_0xINPUT_63096 "MqkGTn") (str.++ seed0_var_0xINPUT_63096 "b")))) (or (= seed0_T_c (not (= seed0_var_0xINPUT_63096 "ywUN4ZIDAC"))) (and (str.prefixof (str.++ seed0_var_0xINPUT_63096 "F29CHecYU8yQ") (str.++ seed0_var_0xINPUT_63096 "KHOvJn7MmEe")) (str.< (str.++ seed0_var_0xINPUT_63096 "CdywcAFkPJn") (str.++ seed0_var_0xINPUT_63096 "mhH6poDu58")))) (or seed0_T_c (=> (str.suffixof (str.++ seed0_var_0xINPUT_63096 "04H") (str.++ seed0_var_0xINPUT_63096 "PDJ7u1FO")) (str.prefixof (str.++ seed0_var_0xINPUT_63096 "Ukiugm53AtGTfB7eclp") (str.++ seed0_var_0xINPUT_63096 "VL2RFItmXZMy8jK4Dr9S"))))))
(check-sat)
(exit)